proyfinal/src/viki/013/experimentInOfficeAgust.take6.output/b0c8d5d7-dbc7-43ca-a783-841ae36227a4.als.dat
{'cnf.clauses': '161767',
 'cnf.totvars': '87638',
 'conflict literals': '1559685',
 'conflicts': '21073',
 'decisions': '96161',
 'memused.mb': '41.69',
 'outcome': 'INDET',
 'propagations': '31410587',
 'restarts': '76',
 'solver.msecs': 2882,
 'stats_inv': {'cnf.clauses': '118081',
               'cnf.totvars': '69608',
               'conflict literals': '58',
               'conflicts': '16',
               'decisions': '34326',
               'memused.mb': '17.63',
               'outcome': 'SAT',
               'propagations': '69650',
               'restarts': '1',
               'solver.msecs': 35,
               'task.output': "Reading from standard input... Use '--help' for "
                              'help.\n'
                              '============================[ Problem '
                              'Statistics ]=============================\n'
                              '|                                                                             '
                              '|\n'
                              '|  Number of variables:         '
                              '69608                                         '
                              '|\n'
                              '|  Number of clauses:          '
                              '118081                                         '
                              '|\n'
                              '|  Parse time:                   0.03 '
                              's                                       |\n'
                              '|                                                                             '
                              '|\n'
                              '============================[ Search Statistics '
                              ']==============================\n'
                              '| Conflicts |          ORIGINAL         '
                              '|          LEARNT          | Progress |\n'
                              '|           |    Vars  Clauses Literals |    '
                              'Limit  Clauses Lit/Cl |          |\n'
                              '===============================================================================\n'
                              '===============================================================================\n'
                              'restarts              : 1\n'
                              'conflicts             : 16             (448 '
                              '/sec)\n'
                              'decisions             : 34326          (0.00 % '
                              'random) (961216 /sec)\n'
                              'propagations          : 69650          (1950379 '
                              '/sec)\n'
                              'conflict literals     : 58             (0.00 % '
                              'deleted)\n'
                              'Memory used           : 17.63 MB\n'
                              'CPU time              : 0.035711 s\n'
                              '\n'
                              'SATISFIABLE\n'},
 'task.msecs': 5012}
