proyfinal/src/viki/013/andrea/andrea-localstore/experimentInOfficeAgust.take6/worker_8/b0c8d5d7-dbc7-43ca-a783-841ae36227a4.als.cnf.out
Reading from standard input... Use '--help' for help.
============================[ Problem Statistics ]=============================
|                                                                             |
|  Number of variables:         87638                                         |
|  Number of clauses:          161767                                         |
|  Parse time:                   0.04 s                                       |
|                                                                             |
============================[ Search Statistics ]==============================
| Conflicts |          ORIGINAL         |          LEARNT          | Progress |
|           |    Vars  Clauses Literals |    Limit  Clauses Lit/Cl |          |
===============================================================================
|       100 |   65392   116018   289528 |    42539      100     18 | 25.384 % |
|       250 |   65392   116018   289528 |    46793      250     40 | 25.384 % |
|       475 |   57911    92931   232459 |    51473      473     35 | 33.920 % |
|       812 |   57836    92633   231767 |    56620      749     33 | 34.006 % |
|      1318 |   57836    92633   231767 |    62282     1255     45 | 34.006 % |
|      2077 |   57773    92483   231415 |    68510     2009     50 | 34.078 % |
|      3216 |   57522    92143   230611 |    75362     3141     62 | 34.364 % |
|      4924 |   56612    88274   221224 |    82898     4611     63 | 35.402 % |
|      7486 |   56203    86740   217541 |    91188     6894     64 | 35.869 % |
|     11330 |   56047    86016   215887 |   100306     8797     69 | 36.047 % |
|     17096 |   55545    84433   212038 |   110337    14460     78 | 36.620 % |
===============================================================================
restarts              : 76
conflicts             : 21073          (7309 /sec)
decisions             : 96161          (0.00 % random) (33355 /sec)
propagations          : 31410587       (10895218 /sec)
conflict literals     : 1559685        (42.52 % deleted)
Memory used           : 41.69 MB
CPU time              : 2.88297 s

INDETERMINATE
